NAME          DCAP_3_4_2_300_SS187
ROWS
 N  OBJ
 L  CON1
 L  CON2
 L  CON3
 L  CON4
 L  CON5
 L  CON6
 L  CON7
 L  CON8
 L  CON9
 L  CON10
 L  CON11
 L  CON12
 E  CON13
 E  CON14
 E  CON15
 E  CON16
 E  CON17
 E  CON18
 E  CON19
 E  CON20
COLUMNS
    x[1,1]    OBJ       6.180167      CON1      1.000000    
    x[1,1]    CON7      -1.000000     CON8      -1.000000   
    x[1,2]    OBJ       5.039546      CON2      1.000000    
    x[1,2]    CON8      -1.000000   
    x[2,1]    OBJ       6.732585      CON3      1.000000    
    x[2,1]    CON9      -1.000000     CON10     -1.000000   
    x[2,2]    OBJ       7.443064      CON4      1.000000    
    x[2,2]    CON10     -1.000000   
    x[3,1]    OBJ       6.563535      CON5      1.000000    
    x[3,1]    CON11     -1.000000     CON12     -1.000000   
    x[3,2]    OBJ       6.054841      CON6      1.000000    
    x[3,2]    CON12     -1.000000   
    MARKER    'MARKER'                'INTORG'
    u[1,1]    OBJ       48.076654     CON1      -1.000000   
    u[1,2]    OBJ       49.466655     CON2      -1.000000   
    u[2,1]    OBJ       49.996186     CON3      -1.000000   
    u[2,2]    OBJ       32.230043     CON4      -1.000000   
    u[3,1]    OBJ       20.066487     CON5      -1.000000   
    u[3,2]    OBJ       27.484319     CON6      -1.000000   
    y[1,1,1]  OBJ       9.221038      CON7      0.907230    
    y[1,1,1]  CON13     1.000000    
    y[1,1,2]  OBJ       5.214313      CON8      0.529608    
    y[1,1,2]  CON14     1.000000    
    y[1,2,1]  OBJ       8.331081      CON7      0.579242    
    y[1,2,1]  CON15     1.000000    
    y[1,2,2]  OBJ       6.679195      CON8      0.933194    
    y[1,2,2]  CON16     1.000000    
    y[1,3,1]  OBJ       9.943182      CON7      1.373255    
    y[1,3,1]  CON17     1.000000    
    y[1,3,2]  OBJ       6.525397      CON8      1.009411    
    y[1,3,2]  CON18     1.000000    
    y[1,4,1]  OBJ       8.298173      CON7      1.250855    
    y[1,4,1]  CON19     1.000000    
    y[1,4,2]  OBJ       9.858916      CON8      0.522837    
    y[1,4,2]  CON20     1.000000    
    y[2,1,1]  OBJ       5.590238      CON9      0.907230    
    y[2,1,1]  CON13     1.000000    
    y[2,1,2]  OBJ       9.737216      CON10     0.529608    
    y[2,1,2]  CON14     1.000000    
    y[2,2,1]  OBJ       8.956796      CON9      0.579242    
    y[2,2,1]  CON15     1.000000    
    y[2,2,2]  OBJ       5.821116      CON10     0.933194    
    y[2,2,2]  CON16     1.000000    
    y[2,3,1]  OBJ       9.231163      CON9      1.373255    
    y[2,3,1]  CON17     1.000000    
    y[2,3,2]  OBJ       8.972990      CON10     1.009411    
    y[2,3,2]  CON18     1.000000    
    y[2,4,1]  OBJ       5.483802      CON9      1.250855    
    y[2,4,1]  CON19     1.000000    
    y[2,4,2]  OBJ       5.950503      CON10     0.522837    
    y[2,4,2]  CON20     1.000000    
    y[3,1,1]  OBJ       9.307884      CON11     0.907230    
    y[3,1,1]  CON13     1.000000    
    y[3,1,2]  OBJ       5.311522      CON12     0.529608    
    y[3,1,2]  CON14     1.000000    
    y[3,2,1]  OBJ       7.063333      CON11     0.579242    
    y[3,2,1]  CON15     1.000000    
    y[3,2,2]  OBJ       5.308874      CON12     0.933194    
    y[3,2,2]  CON16     1.000000    
    y[3,3,1]  OBJ       5.083836      CON11     1.373255    
    y[3,3,1]  CON17     1.000000    
    y[3,3,2]  OBJ       8.021321      CON12     1.009411    
    y[3,3,2]  CON18     1.000000    
    y[3,4,1]  OBJ       9.100065      CON11     1.250855    
    y[3,4,1]  CON19     1.000000    
    y[3,4,2]  OBJ       8.603122      CON12     0.522837    
    y[3,4,2]  CON20     1.000000    
    z[1,1]    OBJ       550.792997    CON13     1.000000    
    z[1,2]    OBJ       837.704862    CON14     1.000000    
    z[2,1]    OBJ       566.914587    CON15     1.000000    
    z[2,2]    OBJ       818.236572    CON16     1.000000    
    z[3,1]    OBJ       739.103039    CON17     1.000000    
    z[3,2]    OBJ       667.703377    CON18     1.000000    
    z[4,1]    OBJ       500.059016    CON19     1.000000    
    z[4,2]    OBJ       997.866152    CON20     1.000000    
    MARKER    'MARKER'                 'INTEND'
RHS
    RHS       CON1      -0.000000     CON2      -0.000000   
    RHS       CON3      -0.000000     CON4      -0.000000   
    RHS       CON5      -0.000000     CON6      -0.000000   
    RHS       CON7      -0.000000     CON8      -0.000000   
    RHS       CON9      -0.000000     CON10     -0.000000   
    RHS       CON11     -0.000000     CON12     -0.000000   
    RHS       CON13     1.000000      CON14     1.000000    
    RHS       CON15     1.000000      CON16     1.000000    
    RHS       CON17     1.000000      CON18     1.000000    
    RHS       CON19     1.000000      CON20     1.000000    
BOUNDS
 BV BOUND     u[1,1]  
 BV BOUND     u[1,2]  
 BV BOUND     u[2,1]  
 BV BOUND     u[2,2]  
 BV BOUND     u[3,1]  
 BV BOUND     u[3,2]  
 BV BOUND     y[1,1,1]
 BV BOUND     y[1,1,2]
 BV BOUND     y[1,2,1]
 BV BOUND     y[1,2,2]
 BV BOUND     y[1,3,1]
 BV BOUND     y[1,3,2]
 BV BOUND     y[1,4,1]
 BV BOUND     y[1,4,2]
 BV BOUND     y[2,1,1]
 BV BOUND     y[2,1,2]
 BV BOUND     y[2,2,1]
 BV BOUND     y[2,2,2]
 BV BOUND     y[2,3,1]
 BV BOUND     y[2,3,2]
 BV BOUND     y[2,4,1]
 BV BOUND     y[2,4,2]
 BV BOUND     y[3,1,1]
 BV BOUND     y[3,1,2]
 BV BOUND     y[3,2,1]
 BV BOUND     y[3,2,2]
 BV BOUND     y[3,3,1]
 BV BOUND     y[3,3,2]
 BV BOUND     y[3,4,1]
 BV BOUND     y[3,4,2]
 BV BOUND     z[1,1]  
 BV BOUND     z[1,2]  
 BV BOUND     z[2,1]  
 BV BOUND     z[2,2]  
 BV BOUND     z[3,1]  
 BV BOUND     z[3,2]  
 BV BOUND     z[4,1]  
 BV BOUND     z[4,2]  
ENDATA
